c nIsolatedPIs 24
c maxPI 40
p cnf 128 265
c gate 41 -16 -36 0
-16 -41 0
-36 -41 0
16 36 41 0
c gate 42 16 36 0
16 -42 0
36 -42 0
-16 -36 42 0
c gate 43 15 35 0
15 -43 0
35 -43 0
-15 -35 43 0
c gate 44 -42 -43 0
-42 -44 0
-43 -44 0
42 43 44 0
c gate 45 14 34 0
14 -45 0
34 -45 0
-14 -34 45 0
c gate 46 13 33 0
13 -46 0
33 -46 0
-13 -33 46 0
c gate 47 -45 -46 0
-45 -47 0
-46 -47 0
45 46 47 0
c gate 48 -15 -35 0
-15 -48 0
-35 -48 0
15 35 48 0
c gate 49 -14 -34 0
-14 -49 0
-34 -49 0
14 34 49 0
c gate 50 -48 -49 0
-48 -50 0
-49 -50 0
48 49 50 0
c gate 51 -47 50 0
-47 -51 0
50 -51 0
47 -50 51 0
c gate 52 44 -51 0
44 -52 0
-51 -52 0
-44 51 52 0
c gate 53 -41 -52 0
-41 -53 0
-52 -53 0
41 52 53 0
c gate 54 2 22 0
2 -54 0
22 -54 0
-2 -22 54 0
c gate 55 1 21 0
1 -55 0
21 -55 0
-1 -21 55 0
c gate 56 -54 -55 0
-54 -56 0
-55 -56 0
54 55 56 0
c gate 57 -3 -23 0
-3 -57 0
-23 -57 0
3 23 57 0
c gate 58 -2 -22 0
-2 -58 0
-22 -58 0
2 22 58 0
c gate 59 -57 -58 0
-57 -59 0
-58 -59 0
57 58 59 0
c gate 60 -56 59 0
-56 -60 0
59 -60 0
56 -59 60 0
c gate 61 4 24 0
4 -61 0
24 -61 0
-4 -24 61 0
c gate 62 3 23 0
3 -62 0
23 -62 0
-3 -23 62 0
c gate 63 -61 -62 0
-61 -63 0
-62 -63 0
61 62 63 0
c gate 64 -60 63 0
-60 -64 0
63 -64 0
60 -63 64 0
c gate 65 -4 -24 0
-4 -65 0
-24 -65 0
4 24 65 0
c gate 66 -5 -25 0
-5 -66 0
-25 -66 0
5 25 66 0
c gate 67 -65 -66 0
-65 -67 0
-66 -67 0
65 66 67 0
c gate 68 -64 67 0
-64 -68 0
67 -68 0
64 -67 68 0
c gate 69 6 26 0
6 -69 0
26 -69 0
-6 -26 69 0
c gate 70 5 25 0
5 -70 0
25 -70 0
-5 -25 70 0
c gate 71 -69 -70 0
-69 -71 0
-70 -71 0
69 70 71 0
c gate 72 -68 71 0
-68 -72 0
71 -72 0
68 -71 72 0
c gate 73 -7 -27 0
-7 -73 0
-27 -73 0
7 27 73 0
c gate 74 -6 -26 0
-6 -74 0
-26 -74 0
6 26 74 0
c gate 75 -73 -74 0
-73 -75 0
-74 -75 0
73 74 75 0
c gate 76 -72 75 0
-72 -76 0
75 -76 0
72 -75 76 0
c gate 77 7 27 0
7 -77 0
27 -77 0
-7 -27 77 0
c gate 78 8 28 0
8 -78 0
28 -78 0
-8 -28 78 0
c gate 79 -77 -78 0
-77 -79 0
-78 -79 0
77 78 79 0
c gate 80 -76 79 0
-76 -80 0
79 -80 0
76 -79 80 0
c gate 81 12 32 0
12 -81 0
32 -81 0
-12 -32 81 0
c gate 82 -12 -32 0
-12 -82 0
-32 -82 0
12 32 82 0
c gate 83 11 31 0
11 -83 0
31 -83 0
-11 -31 83 0
c gate 84 -82 83 0
-82 -84 0
83 -84 0
82 -83 84 0
c gate 85 -81 -84 0
-81 -85 0
-84 -85 0
81 84 85 0
c gate 86 -10 -30 0
-10 -86 0
-30 -86 0
10 30 86 0
c gate 87 -11 -31 0
-11 -87 0
-31 -87 0
11 31 87 0
c gate 88 -82 -87 0
-82 -88 0
-87 -88 0
82 87 88 0
c gate 89 -86 88 0
-86 -89 0
88 -89 0
86 -88 89 0
c gate 90 85 89 0
85 -90 0
89 -90 0
-85 -89 90 0
c gate 91 9 29 0
9 -91 0
29 -91 0
-9 -29 91 0
c gate 92 10 30 0
10 -92 0
30 -92 0
-10 -30 92 0
c gate 93 -91 -92 0
-91 -93 0
-92 -93 0
91 92 93 0
c gate 94 -9 -29 0
-9 -94 0
-29 -94 0
9 29 94 0
c gate 95 -8 -28 0
-8 -95 0
-28 -95 0
8 28 95 0
c gate 96 -94 -95 0
-94 -96 0
-95 -96 0
94 95 96 0
c gate 97 93 96 0
93 -97 0
96 -97 0
-93 -96 97 0
c gate 98 90 97 0
90 -98 0
97 -98 0
-90 -97 98 0
c gate 99 -80 98 0
-80 -99 0
98 -99 0
80 -98 99 0
c gate 100 90 -93 0
90 -100 0
-93 -100 0
-90 93 100 0
c gate 101 85 -100 0
85 -101 0
-100 -101 0
-85 100 101 0
c gate 102 -99 101 0
-99 -102 0
101 -102 0
99 -101 102 0
c gate 103 -13 -33 0
-13 -103 0
-33 -103 0
13 33 103 0
c gate 104 -41 -103 0
-41 -104 0
-103 -104 0
41 103 104 0
c gate 105 47 104 0
47 -105 0
104 -105 0
-47 -104 105 0
c gate 106 44 50 0
44 -106 0
50 -106 0
-44 -50 106 0
c gate 107 105 106 0
105 -107 0
106 -107 0
-105 -106 107 0
c gate 108 18 38 0
18 -108 0
38 -108 0
-18 -38 108 0
c gate 109 -18 -38 0
-18 -109 0
-38 -109 0
18 38 109 0
c gate 110 17 37 0
17 -110 0
37 -110 0
-17 -37 110 0
c gate 111 -109 110 0
-109 -111 0
110 -111 0
109 -110 111 0
c gate 112 -108 -111 0
-108 -112 0
-111 -112 0
108 111 112 0
c gate 113 107 -112 0
107 -113 0
-112 -113 0
-107 112 113 0
c gate 114 -102 113 0
-102 -114 0
113 -114 0
102 -113 114 0
c gate 115 -53 -114 0
-53 -115 0
-114 -115 0
53 114 115 0
c gate 116 20 40 0
20 -116 0
40 -116 0
-20 -40 116 0
c gate 117 -20 -40 0
-20 -117 0
-40 -117 0
20 40 117 0
c gate 118 19 39 0
19 -118 0
39 -118 0
-19 -39 118 0
c gate 119 -117 118 0
-117 -119 0
118 -119 0
117 -118 119 0
c gate 120 -116 -119 0
-116 -120 0
-119 -120 0
116 119 120 0
c gate 121 -19 -39 0
-19 -121 0
-39 -121 0
19 39 121 0
c gate 122 -117 -121 0
-117 -122 0
-121 -122 0
117 121 122 0
c gate 123 120 122 0
120 -123 0
122 -123 0
-120 -122 123 0
c gate 124 -17 -37 0
-17 -124 0
-37 -124 0
17 37 124 0
c gate 125 -109 -124 0
-109 -125 0
-124 -125 0
109 124 125 0
c gate 126 112 125 0
112 -126 0
125 -126 0
-112 -125 126 0
c gate 127 123 126 0
123 -127 0
126 -127 0
-123 -126 127 0
c gate 128 -115 127 0
-115 -128 0
127 -128 0
115 -127 128 0
c PO
128 0
